(set-info :smt-lib-version 2.6)
(set-logic QF_BV)
(set-info :source |
Generated by: Maximilian A. Zinkus
Generated on: 2022-10-12
Generator: MCMPC
Application: Model counting optimization for MPC functionalities
Target solver: CryptoMinisat, Z3
|)
(set-info :license "https://creativecommons.org/licenses/by/4.0/")
(set-info :category "industrial")
(set-info :status unknown)
(declare-fun chosen_0 () Bool)
(declare-fun chosen () (_ BitVec 32))
(declare-fun chosen_1 () Bool)
(declare-fun chosen_2 () Bool)
(declare-fun chosen_3 () Bool)
(declare-fun chosen_4 () Bool)
(declare-fun chosen_5 () Bool)
(declare-fun chosen_6 () Bool)
(declare-fun chosen_7 () Bool)
(declare-fun chosen_8 () Bool)
(declare-fun chosen_9 () Bool)
(declare-fun chosen_10 () Bool)
(declare-fun chosen_11 () Bool)
(declare-fun chosen_12 () Bool)
(declare-fun chosen_13 () Bool)
(declare-fun chosen_14 () Bool)
(declare-fun chosen_15 () Bool)
(declare-fun chosen_16 () Bool)
(declare-fun chosen_17 () Bool)
(declare-fun chosen_18 () Bool)
(declare-fun chosen_19 () Bool)
(declare-fun chosen_20 () Bool)
(declare-fun chosen_21 () Bool)
(declare-fun chosen_22 () Bool)
(declare-fun chosen_23 () Bool)
(declare-fun chosen_24 () Bool)
(declare-fun chosen_25 () Bool)
(declare-fun chosen_26 () Bool)
(declare-fun chosen_27 () Bool)
(declare-fun chosen_28 () Bool)
(declare-fun chosen_29 () Bool)
(declare-fun chosen_30 () Bool)
(declare-fun chosen_31 () Bool)
(declare-fun target_0 () Bool)
(declare-fun target () (_ BitVec 32))
(declare-fun target_1 () Bool)
(declare-fun target_2 () Bool)
(declare-fun target_3 () Bool)
(declare-fun target_4 () Bool)
(declare-fun target_5 () Bool)
(declare-fun target_6 () Bool)
(declare-fun target_7 () Bool)
(declare-fun target_8 () Bool)
(declare-fun target_9 () Bool)
(declare-fun target_10 () Bool)
(declare-fun target_11 () Bool)
(declare-fun target_12 () Bool)
(declare-fun target_13 () Bool)
(declare-fun target_14 () Bool)
(declare-fun target_15 () Bool)
(declare-fun target_16 () Bool)
(declare-fun target_17 () Bool)
(declare-fun target_18 () Bool)
(declare-fun target_19 () Bool)
(declare-fun target_20 () Bool)
(declare-fun target_21 () Bool)
(declare-fun target_22 () Bool)
(declare-fun target_23 () Bool)
(declare-fun target_24 () Bool)
(declare-fun target_25 () Bool)
(declare-fun target_26 () Bool)
(declare-fun target_27 () Bool)
(declare-fun target_28 () Bool)
(declare-fun target_29 () Bool)
(declare-fun target_30 () Bool)
(declare-fun target_31 () Bool)
(declare-fun target_outcome0_t0 () (_ BitVec 32))
(declare-fun chosen_outcome0 () (_ BitVec 32))
(declare-fun target_outcome1_t0 () (_ BitVec 32))
(declare-fun chosen_outcome1 () (_ BitVec 32))
(declare-fun target_outcome2_t0 () (_ BitVec 32))
(declare-fun chosen_outcome2 () (_ BitVec 32))
(declare-fun target_outcome3_t0 () (_ BitVec 32))
(declare-fun chosen_outcome3 () (_ BitVec 32))
(declare-fun target_outcome4_t0 () (_ BitVec 32))
(declare-fun chosen_outcome4 () (_ BitVec 32))
(declare-fun target_outcome5_t0 () (_ BitVec 32))
(declare-fun chosen_outcome5 () (_ BitVec 32))
(declare-fun target_outcome6_t0 () (_ BitVec 32))
(declare-fun chosen_outcome6 () (_ BitVec 32))
(declare-fun target_outcome7_t0 () (_ BitVec 32))
(declare-fun chosen_outcome7 () (_ BitVec 32))
(declare-fun target_outcome8_t0 () (_ BitVec 32))
(declare-fun chosen_outcome8 () (_ BitVec 32))
(declare-fun target_outcome9_t0 () (_ BitVec 32))
(declare-fun chosen_outcome9 () (_ BitVec 32))
(declare-fun target_outcome10_t0 () (_ BitVec 32))
(declare-fun chosen_outcome10 () (_ BitVec 32))
(declare-fun target_outcome11_t0 () (_ BitVec 32))
(declare-fun chosen_outcome11 () (_ BitVec 32))
(declare-fun target_outcome12_t0 () (_ BitVec 32))
(declare-fun chosen_outcome12 () (_ BitVec 32))
(declare-fun target_outcome13_t0 () (_ BitVec 32))
(declare-fun chosen_outcome13 () (_ BitVec 32))
(declare-fun target_outcome14_t0 () (_ BitVec 32))
(declare-fun chosen_outcome14 () (_ BitVec 32))
(declare-fun target_outcome15_t0 () (_ BitVec 32))
(declare-fun chosen_outcome15 () (_ BitVec 32))
(declare-fun target_outcome16_t0 () (_ BitVec 32))
(declare-fun chosen_outcome16 () (_ BitVec 32))
(declare-fun target_outcome17_t0 () (_ BitVec 32))
(declare-fun chosen_outcome17 () (_ BitVec 32))
(declare-fun target_outcome18_t0 () (_ BitVec 32))
(declare-fun chosen_outcome18 () (_ BitVec 32))
(declare-fun target_outcome19_t0 () (_ BitVec 32))
(declare-fun chosen_outcome19 () (_ BitVec 32))
(declare-fun target_outcome20_t0 () (_ BitVec 32))
(declare-fun chosen_outcome20 () (_ BitVec 32))
(declare-fun target_outcome21_t0 () (_ BitVec 32))
(declare-fun chosen_outcome21 () (_ BitVec 32))
(declare-fun target_outcome22_t0 () (_ BitVec 32))
(declare-fun chosen_outcome22 () (_ BitVec 32))
(declare-fun target_outcome23_t0 () (_ BitVec 32))
(declare-fun chosen_outcome23 () (_ BitVec 32))
(declare-fun target_outcome24_t0 () (_ BitVec 32))
(declare-fun chosen_outcome24 () (_ BitVec 32))
(declare-fun target_outcome25_t0 () (_ BitVec 32))
(declare-fun chosen_outcome25 () (_ BitVec 32))
(declare-fun target_outcome26_t0 () (_ BitVec 32))
(declare-fun chosen_outcome26 () (_ BitVec 32))
(declare-fun target_outcome27_t0 () (_ BitVec 32))
(declare-fun chosen_outcome27 () (_ BitVec 32))
(declare-fun target_outcome28_t0 () (_ BitVec 32))
(declare-fun chosen_outcome28 () (_ BitVec 32))
(declare-fun target_outcome29_t0 () (_ BitVec 32))
(declare-fun chosen_outcome29 () (_ BitVec 32))
(declare-fun target_outcome30_t0 () (_ BitVec 32))
(declare-fun chosen_outcome30 () (_ BitVec 32))
(declare-fun target_outcome31_t0 () (_ BitVec 32))
(declare-fun chosen_outcome31 () (_ BitVec 32))
(declare-fun target_outcome32_t0 () (_ BitVec 32))
(declare-fun chosen_outcome32 () (_ BitVec 32))
(declare-fun target_bit_15_0_bool () Bool)
(declare-fun target_bit_15_1_bool () Bool)
(declare-fun target_bit_15_2_bool () Bool)
(declare-fun target_bit_15_3_bool () Bool)
(declare-fun target_bit_15_4_bool () Bool)
(declare-fun target_bit_15_5_bool () Bool)
(declare-fun target_bit_15_6_bool () Bool)
(declare-fun target_bit_15_7_bool () Bool)
(declare-fun target_bit_15_8_bool () Bool)
(declare-fun target_bit_15_9_bool () Bool)
(declare-fun target_bit_15_10_bool () Bool)
(declare-fun target_bit_15_11_bool () Bool)
(declare-fun target_bit_15_12_bool () Bool)
(declare-fun target_bit_15_13_bool () Bool)
(declare-fun target_bit_15_14_bool () Bool)
(declare-fun target_bit_15_15_bool () Bool)
(declare-fun target_bit_15_16_bool () Bool)
(declare-fun target_bit_15_17_bool () Bool)
(declare-fun target_bit_15_18_bool () Bool)
(declare-fun target_bit_15_19_bool () Bool)
(declare-fun target_bit_15_20_bool () Bool)
(declare-fun target_bit_15_21_bool () Bool)
(declare-fun target_bit_15_22_bool () Bool)
(declare-fun target_bit_15_23_bool () Bool)
(declare-fun target_bit_15_24_bool () Bool)
(declare-fun target_bit_15_25_bool () Bool)
(declare-fun target_bit_15_26_bool () Bool)
(declare-fun target_bit_15_27_bool () Bool)
(declare-fun target_bit_15_28_bool () Bool)
(declare-fun target_bit_15_29_bool () Bool)
(declare-fun target_bit_15_30_bool () Bool)
(declare-fun target_bit_15_31_bool () Bool)
(declare-fun target_bit_16_0_bool () Bool)
(declare-fun target_bit_16_1_bool () Bool)
(declare-fun target_bit_16_2_bool () Bool)
(declare-fun target_bit_16_3_bool () Bool)
(declare-fun target_bit_16_4_bool () Bool)
(declare-fun target_bit_16_5_bool () Bool)
(declare-fun target_bit_16_6_bool () Bool)
(declare-fun target_bit_16_7_bool () Bool)
(declare-fun target_bit_16_8_bool () Bool)
(declare-fun target_bit_16_9_bool () Bool)
(declare-fun target_bit_16_10_bool () Bool)
(declare-fun target_bit_16_11_bool () Bool)
(declare-fun target_bit_16_12_bool () Bool)
(declare-fun target_bit_16_13_bool () Bool)
(declare-fun target_bit_16_14_bool () Bool)
(declare-fun target_bit_16_15_bool () Bool)
(declare-fun target_bit_16_16_bool () Bool)
(declare-fun target_bit_16_17_bool () Bool)
(declare-fun target_bit_16_18_bool () Bool)
(declare-fun target_bit_16_19_bool () Bool)
(declare-fun target_bit_16_20_bool () Bool)
(declare-fun target_bit_16_21_bool () Bool)
(declare-fun target_bit_16_22_bool () Bool)
(declare-fun target_bit_16_23_bool () Bool)
(declare-fun target_bit_16_24_bool () Bool)
(declare-fun target_bit_16_25_bool () Bool)
(declare-fun target_bit_16_26_bool () Bool)
(declare-fun target_bit_16_27_bool () Bool)
(declare-fun target_bit_16_28_bool () Bool)
(declare-fun target_bit_16_29_bool () Bool)
(declare-fun target_bit_16_30_bool () Bool)
(declare-fun target_bit_16_31_bool () Bool)
(assert
 (= (= (_ bv1 1) ((_ extract 0 0) chosen)) (= chosen_0 true)))
(assert
 (= (= (_ bv1 1) ((_ extract 1 1) chosen)) (= chosen_1 true)))
(assert
 (= (= (_ bv1 1) ((_ extract 2 2) chosen)) (= chosen_2 true)))
(assert
 (= (= (_ bv1 1) ((_ extract 3 3) chosen)) (= chosen_3 true)))
(assert
 (= (= (_ bv1 1) ((_ extract 4 4) chosen)) (= chosen_4 true)))
(assert
 (= (= (_ bv1 1) ((_ extract 5 5) chosen)) (= chosen_5 true)))
(assert
 (= (= (_ bv1 1) ((_ extract 6 6) chosen)) (= chosen_6 true)))
(assert
 (= (= (_ bv1 1) ((_ extract 7 7) chosen)) (= chosen_7 true)))
(assert
 (= (= (_ bv1 1) ((_ extract 8 8) chosen)) (= chosen_8 true)))
(assert
 (= (= (_ bv1 1) ((_ extract 9 9) chosen)) (= chosen_9 true)))
(assert
 (= (= (_ bv1 1) ((_ extract 10 10) chosen)) (= chosen_10 true)))
(assert
 (= (= (_ bv1 1) ((_ extract 11 11) chosen)) (= chosen_11 true)))
(assert
 (= (= (_ bv1 1) ((_ extract 12 12) chosen)) (= chosen_12 true)))
(assert
 (= (= (_ bv1 1) ((_ extract 13 13) chosen)) (= chosen_13 true)))
(assert
 (= (= (_ bv1 1) ((_ extract 14 14) chosen)) (= chosen_14 true)))
(assert
 (= (= (_ bv1 1) ((_ extract 15 15) chosen)) (= chosen_15 true)))
(assert
 (= (= (_ bv1 1) ((_ extract 16 16) chosen)) (= chosen_16 true)))
(assert
 (= (= (_ bv1 1) ((_ extract 17 17) chosen)) (= chosen_17 true)))
(assert
 (= (= (_ bv1 1) ((_ extract 18 18) chosen)) (= chosen_18 true)))
(assert
 (= (= (_ bv1 1) ((_ extract 19 19) chosen)) (= chosen_19 true)))
(assert
 (= (= (_ bv1 1) ((_ extract 20 20) chosen)) (= chosen_20 true)))
(assert
 (= (= (_ bv1 1) ((_ extract 21 21) chosen)) (= chosen_21 true)))
(assert
 (= (= (_ bv1 1) ((_ extract 22 22) chosen)) (= chosen_22 true)))
(assert
 (= (= (_ bv1 1) ((_ extract 23 23) chosen)) (= chosen_23 true)))
(assert
 (= (= (_ bv1 1) ((_ extract 24 24) chosen)) (= chosen_24 true)))
(assert
 (= (= (_ bv1 1) ((_ extract 25 25) chosen)) (= chosen_25 true)))
(assert
 (= (= (_ bv1 1) ((_ extract 26 26) chosen)) (= chosen_26 true)))
(assert
 (= (= (_ bv1 1) ((_ extract 27 27) chosen)) (= chosen_27 true)))
(assert
 (= (= (_ bv1 1) ((_ extract 28 28) chosen)) (= chosen_28 true)))
(assert
 (= (= (_ bv1 1) ((_ extract 29 29) chosen)) (= chosen_29 true)))
(assert
 (= (= (_ bv1 1) ((_ extract 30 30) chosen)) (= chosen_30 true)))
(assert
 (= (= (_ bv1 1) ((_ extract 31 31) chosen)) (= chosen_31 true)))
(assert
 (= (= (_ bv1 1) ((_ extract 0 0) target)) (= target_0 true)))
(assert
 (= (= (_ bv1 1) ((_ extract 1 1) target)) (= target_1 true)))
(assert
 (= (= (_ bv1 1) ((_ extract 2 2) target)) (= target_2 true)))
(assert
 (= (= (_ bv1 1) ((_ extract 3 3) target)) (= target_3 true)))
(assert
 (= (= (_ bv1 1) ((_ extract 4 4) target)) (= target_4 true)))
(assert
 (= (= (_ bv1 1) ((_ extract 5 5) target)) (= target_5 true)))
(assert
 (= (= (_ bv1 1) ((_ extract 6 6) target)) (= target_6 true)))
(assert
 (= (= (_ bv1 1) ((_ extract 7 7) target)) (= target_7 true)))
(assert
 (= (= (_ bv1 1) ((_ extract 8 8) target)) (= target_8 true)))
(assert
 (= (= (_ bv1 1) ((_ extract 9 9) target)) (= target_9 true)))
(assert
 (= (= (_ bv1 1) ((_ extract 10 10) target)) (= target_10 true)))
(assert
 (= (= (_ bv1 1) ((_ extract 11 11) target)) (= target_11 true)))
(assert
 (= (= (_ bv1 1) ((_ extract 12 12) target)) (= target_12 true)))
(assert
 (= (= (_ bv1 1) ((_ extract 13 13) target)) (= target_13 true)))
(assert
 (= (= (_ bv1 1) ((_ extract 14 14) target)) (= target_14 true)))
(assert
 (= (= (_ bv1 1) ((_ extract 15 15) target)) (= target_15 true)))
(assert
 (= (= (_ bv1 1) ((_ extract 16 16) target)) (= target_16 true)))
(assert
 (= (= (_ bv1 1) ((_ extract 17 17) target)) (= target_17 true)))
(assert
 (= (= (_ bv1 1) ((_ extract 18 18) target)) (= target_18 true)))
(assert
 (= (= (_ bv1 1) ((_ extract 19 19) target)) (= target_19 true)))
(assert
 (= (= (_ bv1 1) ((_ extract 20 20) target)) (= target_20 true)))
(assert
 (= (= (_ bv1 1) ((_ extract 21 21) target)) (= target_21 true)))
(assert
 (= (= (_ bv1 1) ((_ extract 22 22) target)) (= target_22 true)))
(assert
 (= (= (_ bv1 1) ((_ extract 23 23) target)) (= target_23 true)))
(assert
 (= (= (_ bv1 1) ((_ extract 24 24) target)) (= target_24 true)))
(assert
 (= (= (_ bv1 1) ((_ extract 25 25) target)) (= target_25 true)))
(assert
 (= (= (_ bv1 1) ((_ extract 26 26) target)) (= target_26 true)))
(assert
 (= (= (_ bv1 1) ((_ extract 27 27) target)) (= target_27 true)))
(assert
 (= (= (_ bv1 1) ((_ extract 28 28) target)) (= target_28 true)))
(assert
 (= (= (_ bv1 1) ((_ extract 29 29) target)) (= target_29 true)))
(assert
 (= (= (_ bv1 1) ((_ extract 30 30) target)) (= target_30 true)))
(assert
 (= (= (_ bv1 1) ((_ extract 31 31) target)) (= target_31 true)))
(assert
 (let ((?x793 (bvadd (bvand chosen_outcome0 target_outcome0_t0) (bvlshr (bvxor chosen_outcome0 target_outcome0_t0) (_ bv1 32)))))
 (let ((?x756 ((_ extract 31 26) ?x793)))
 (let ((?x352 ((_ extract 31 26) chosen_outcome0)))
 (= (_ bv0 6) (ite (bvuge ?x756 ?x352) (bvsub ?x756 ?x352) (bvsub ?x352 ?x756)))))))
(assert
 (let ((?x354 (bvadd (bvand chosen_outcome1 target_outcome1_t0) (bvlshr (bvxor chosen_outcome1 target_outcome1_t0) (_ bv1 32)))))
 (let ((?x826 ((_ extract 31 26) ?x354)))
 (let ((?x377 ((_ extract 31 26) chosen_outcome1)))
 (= (_ bv1 6) (ite (bvuge ?x826 ?x377) (bvsub ?x826 ?x377) (bvsub ?x377 ?x826)))))))
(assert
 (let ((?x373 (bvadd (bvand chosen_outcome2 target_outcome2_t0) (bvlshr (bvxor chosen_outcome2 target_outcome2_t0) (_ bv1 32)))))
 (let ((?x368 ((_ extract 31 26) ?x373)))
 (let ((?x837 ((_ extract 31 26) chosen_outcome2)))
 (= (_ bv2 6) (ite (bvuge ?x368 ?x837) (bvsub ?x368 ?x837) (bvsub ?x837 ?x368)))))))
(assert
 (let ((?x881 (bvadd (bvand chosen_outcome3 target_outcome3_t0) (bvlshr (bvxor chosen_outcome3 target_outcome3_t0) (_ bv1 32)))))
 (let ((?x833 ((_ extract 31 26) ?x881)))
 (let ((?x454 ((_ extract 31 26) chosen_outcome3)))
 (= (_ bv3 6) (ite (bvuge ?x833 ?x454) (bvsub ?x833 ?x454) (bvsub ?x454 ?x833)))))))
(assert
 (let ((?x424 (bvadd (bvand chosen_outcome4 target_outcome4_t0) (bvlshr (bvxor chosen_outcome4 target_outcome4_t0) (_ bv1 32)))))
 (let ((?x801 ((_ extract 31 26) ?x424)))
 (let ((?x363 ((_ extract 31 26) chosen_outcome4)))
 (= (_ bv4 6) (ite (bvuge ?x801 ?x363) (bvsub ?x801 ?x363) (bvsub ?x363 ?x801)))))))
(assert
 (let ((?x359 (bvadd (bvand chosen_outcome5 target_outcome5_t0) (bvlshr (bvxor chosen_outcome5 target_outcome5_t0) (_ bv1 32)))))
 (let ((?x353 ((_ extract 31 26) ?x359)))
 (let ((?x523 ((_ extract 31 26) chosen_outcome5)))
 (= (_ bv5 6) (ite (bvuge ?x353 ?x523) (bvsub ?x353 ?x523) (bvsub ?x523 ?x353)))))))
(assert
 (let ((?x447 (bvadd (bvand chosen_outcome6 target_outcome6_t0) (bvlshr (bvxor chosen_outcome6 target_outcome6_t0) (_ bv1 32)))))
 (let ((?x910 ((_ extract 31 26) ?x447)))
 (let ((?x991 ((_ extract 31 26) chosen_outcome6)))
 (= (_ bv6 6) (ite (bvuge ?x910 ?x991) (bvsub ?x910 ?x991) (bvsub ?x991 ?x910)))))))
(assert
 (let ((?x362 (bvadd (bvand chosen_outcome7 target_outcome7_t0) (bvlshr (bvxor chosen_outcome7 target_outcome7_t0) (_ bv1 32)))))
 (let ((?x438 ((_ extract 31 26) ?x362)))
 (let ((?x394 ((_ extract 31 26) chosen_outcome7)))
 (= (_ bv7 6) (ite (bvuge ?x438 ?x394) (bvsub ?x438 ?x394) (bvsub ?x394 ?x438)))))))
(assert
 (let ((?x792 (bvadd (bvand chosen_outcome8 target_outcome8_t0) (bvlshr (bvxor chosen_outcome8 target_outcome8_t0) (_ bv1 32)))))
 (let ((?x737 ((_ extract 31 26) ?x792)))
 (let ((?x738 ((_ extract 31 26) chosen_outcome8)))
 (= (_ bv8 6) (ite (bvuge ?x737 ?x738) (bvsub ?x737 ?x738) (bvsub ?x738 ?x737)))))))
(assert
 (let ((?x716 (bvadd (bvand chosen_outcome9 target_outcome9_t0) (bvlshr (bvxor chosen_outcome9 target_outcome9_t0) (_ bv1 32)))))
 (let ((?x526 ((_ extract 31 26) ?x716)))
 (let ((?x492 ((_ extract 31 26) chosen_outcome9)))
 (= (_ bv9 6) (ite (bvuge ?x526 ?x492) (bvsub ?x526 ?x492) (bvsub ?x492 ?x526)))))))
(assert
 (let ((?x491 (bvadd (bvand chosen_outcome10 target_outcome10_t0) (bvlshr (bvxor chosen_outcome10 target_outcome10_t0) (_ bv1 32)))))
 (let ((?x336 ((_ extract 31 26) ?x491)))
 (let ((?x679 ((_ extract 31 26) chosen_outcome10)))
 (= (_ bv10 6) (ite (bvuge ?x336 ?x679) (bvsub ?x336 ?x679) (bvsub ?x679 ?x336)))))))
(assert
 (let ((?x657 (bvadd (bvand chosen_outcome11 target_outcome11_t0) (bvlshr (bvxor chosen_outcome11 target_outcome11_t0) (_ bv1 32)))))
 (let ((?x660 ((_ extract 31 26) ?x657)))
 (let ((?x661 ((_ extract 31 26) chosen_outcome11)))
 (= (_ bv11 6) (ite (bvuge ?x660 ?x661) (bvsub ?x660 ?x661) (bvsub ?x661 ?x660)))))))
(assert
 (let ((?x639 (bvadd (bvand chosen_outcome12 target_outcome12_t0) (bvlshr (bvxor chosen_outcome12 target_outcome12_t0) (_ bv1 32)))))
 (let ((?x405 ((_ extract 31 26) ?x639)))
 (let ((?x339 ((_ extract 31 26) chosen_outcome12)))
 (= (_ bv12 6) (ite (bvuge ?x405 ?x339) (bvsub ?x405 ?x339) (bvsub ?x339 ?x405)))))))
(assert
 (let ((?x343 (bvadd (bvand chosen_outcome13 target_outcome13_t0) (bvlshr (bvxor chosen_outcome13 target_outcome13_t0) (_ bv1 32)))))
 (let ((?x420 ((_ extract 31 26) ?x343)))
 (let ((?x602 ((_ extract 31 26) chosen_outcome13)))
 (= (_ bv13 6) (ite (bvuge ?x420 ?x602) (bvsub ?x420 ?x602) (bvsub ?x602 ?x420)))))))
(assert
 (let ((?x453 (bvadd (bvand chosen_outcome14 target_outcome14_t0) (bvlshr (bvxor chosen_outcome14 target_outcome14_t0) (_ bv1 32)))))
 (let ((?x557 ((_ extract 31 26) ?x453)))
 (let ((?x597 ((_ extract 31 26) chosen_outcome14)))
 (= (_ bv14 6) (ite (bvuge ?x557 ?x597) (bvsub ?x557 ?x597) (bvsub ?x597 ?x557)))))))
(assert
 (let ((?x619 (bvadd (bvand chosen_outcome15 target_outcome15_t0) (bvlshr (bvxor chosen_outcome15 target_outcome15_t0) (_ bv1 32)))))
 (let ((?x620 ((_ extract 31 26) ?x619)))
 (let ((?x621 ((_ extract 31 26) chosen_outcome15)))
 (= (_ bv15 6) (ite (bvuge ?x620 ?x621) (bvsub ?x620 ?x621) (bvsub ?x621 ?x620)))))))
(assert
 (let ((?x643 (bvadd (bvand chosen_outcome16 target_outcome16_t0) (bvlshr (bvxor chosen_outcome16 target_outcome16_t0) (_ bv1 32)))))
 (let ((?x644 ((_ extract 31 26) ?x643)))
 (let ((?x645 ((_ extract 31 26) chosen_outcome16)))
 (= (_ bv16 6) (ite (bvuge ?x644 ?x645) (bvsub ?x644 ?x645) (bvsub ?x645 ?x644)))))))
(assert
 (let ((?x667 (bvadd (bvand chosen_outcome17 target_outcome17_t0) (bvlshr (bvxor chosen_outcome17 target_outcome17_t0) (_ bv1 32)))))
 (let ((?x673 ((_ extract 31 26) ?x667)))
 (let ((?x674 ((_ extract 31 26) chosen_outcome17)))
 (= (_ bv17 6) (ite (bvuge ?x673 ?x674) (bvsub ?x673 ?x674) (bvsub ?x674 ?x673)))))))
(assert
 (let ((?x696 (bvadd (bvand chosen_outcome18 target_outcome18_t0) (bvlshr (bvxor chosen_outcome18 target_outcome18_t0) (_ bv1 32)))))
 (let ((?x697 ((_ extract 31 26) ?x696)))
 (let ((?x698 ((_ extract 31 26) chosen_outcome18)))
 (= (_ bv18 6) (ite (bvuge ?x697 ?x698) (bvsub ?x697 ?x698) (bvsub ?x698 ?x697)))))))
(assert
 (let ((?x720 (bvadd (bvand chosen_outcome19 target_outcome19_t0) (bvlshr (bvxor chosen_outcome19 target_outcome19_t0) (_ bv1 32)))))
 (let ((?x721 ((_ extract 31 26) ?x720)))
 (let ((?x722 ((_ extract 31 26) chosen_outcome19)))
 (= (_ bv19 6) (ite (bvuge ?x721 ?x722) (bvsub ?x721 ?x722) (bvsub ?x722 ?x721)))))))
(assert
 (let ((?x744 (bvadd (bvand chosen_outcome20 target_outcome20_t0) (bvlshr (bvxor chosen_outcome20 target_outcome20_t0) (_ bv1 32)))))
 (let ((?x750 ((_ extract 31 26) ?x744)))
 (let ((?x751 ((_ extract 31 26) chosen_outcome20)))
 (= (_ bv20 6) (ite (bvuge ?x750 ?x751) (bvsub ?x750 ?x751) (bvsub ?x751 ?x750)))))))
(assert
 (let ((?x773 (bvadd (bvand chosen_outcome21 target_outcome21_t0) (bvlshr (bvxor chosen_outcome21 target_outcome21_t0) (_ bv1 32)))))
 (let ((?x774 ((_ extract 31 26) ?x773)))
 (let ((?x775 ((_ extract 31 26) chosen_outcome21)))
 (= (_ bv21 6) (ite (bvuge ?x774 ?x775) (bvsub ?x774 ?x775) (bvsub ?x775 ?x774)))))))
(assert
 (let ((?x797 (bvadd (bvand chosen_outcome22 target_outcome22_t0) (bvlshr (bvxor chosen_outcome22 target_outcome22_t0) (_ bv1 32)))))
 (let ((?x798 ((_ extract 31 26) ?x797)))
 (let ((?x799 ((_ extract 31 26) chosen_outcome22)))
 (= (_ bv22 6) (ite (bvuge ?x798 ?x799) (bvsub ?x798 ?x799) (bvsub ?x799 ?x798)))))))
(assert
 (let ((?x821 (bvadd (bvand chosen_outcome23 target_outcome23_t0) (bvlshr (bvxor chosen_outcome23 target_outcome23_t0) (_ bv1 32)))))
 (let ((?x827 ((_ extract 31 26) ?x821)))
 (let ((?x828 ((_ extract 31 26) chosen_outcome23)))
 (= (_ bv23 6) (ite (bvuge ?x827 ?x828) (bvsub ?x827 ?x828) (bvsub ?x828 ?x827)))))))
(assert
 (let ((?x850 (bvadd (bvand chosen_outcome24 target_outcome24_t0) (bvlshr (bvxor chosen_outcome24 target_outcome24_t0) (_ bv1 32)))))
 (let ((?x851 ((_ extract 31 26) ?x850)))
 (let ((?x852 ((_ extract 31 26) chosen_outcome24)))
 (= (_ bv24 6) (ite (bvuge ?x851 ?x852) (bvsub ?x851 ?x852) (bvsub ?x852 ?x851)))))))
(assert
 (let ((?x874 (bvadd (bvand chosen_outcome25 target_outcome25_t0) (bvlshr (bvxor chosen_outcome25 target_outcome25_t0) (_ bv1 32)))))
 (let ((?x875 ((_ extract 31 26) ?x874)))
 (let ((?x876 ((_ extract 31 26) chosen_outcome25)))
 (= (_ bv25 6) (ite (bvuge ?x875 ?x876) (bvsub ?x875 ?x876) (bvsub ?x876 ?x875)))))))
(assert
 (let ((?x898 (bvadd (bvand chosen_outcome26 target_outcome26_t0) (bvlshr (bvxor chosen_outcome26 target_outcome26_t0) (_ bv1 32)))))
 (let ((?x904 ((_ extract 31 26) ?x898)))
 (let ((?x905 ((_ extract 31 26) chosen_outcome26)))
 (= (_ bv26 6) (ite (bvuge ?x904 ?x905) (bvsub ?x904 ?x905) (bvsub ?x905 ?x904)))))))
(assert
 (let ((?x790 (bvadd (bvand chosen_outcome27 target_outcome27_t0) (bvlshr (bvxor chosen_outcome27 target_outcome27_t0) (_ bv1 32)))))
 (let ((?x791 ((_ extract 31 26) ?x790)))
 (let ((?x867 ((_ extract 31 26) chosen_outcome27)))
 (= (_ bv27 6) (ite (bvuge ?x791 ?x867) (bvsub ?x791 ?x867) (bvsub ?x867 ?x791)))))))
(assert
 (let ((?x585 (bvadd (bvand chosen_outcome28 target_outcome28_t0) (bvlshr (bvxor chosen_outcome28 target_outcome28_t0) (_ bv1 32)))))
 (let ((?x579 ((_ extract 31 26) ?x585)))
 (let ((?x574 ((_ extract 31 26) chosen_outcome28)))
 (= (_ bv28 6) (ite (bvuge ?x579 ?x574) (bvsub ?x579 ?x574) (bvsub ?x574 ?x579)))))))
(assert
 (let ((?x568 (bvadd (bvand chosen_outcome29 target_outcome29_t0) (bvlshr (bvxor chosen_outcome29 target_outcome29_t0) (_ bv1 32)))))
 (let ((?x900 ((_ extract 31 26) ?x568)))
 (let ((?x567 ((_ extract 31 26) chosen_outcome29)))
 (= (_ bv29 6) (ite (bvuge ?x900 ?x567) (bvsub ?x900 ?x567) (bvsub ?x567 ?x900)))))))
(assert
 (let ((?x824 (bvadd (bvand chosen_outcome30 target_outcome30_t0) (bvlshr (bvxor chosen_outcome30 target_outcome30_t0) (_ bv1 32)))))
 (let ((?x812 ((_ extract 31 26) ?x824)))
 (let ((?x835 ((_ extract 31 26) chosen_outcome30)))
 (= (_ bv30 6) (ite (bvuge ?x812 ?x835) (bvsub ?x812 ?x835) (bvsub ?x835 ?x812)))))))
(assert
 (let ((?x725 (bvadd (bvand chosen_outcome31 target_outcome31_t0) (bvlshr (bvxor chosen_outcome31 target_outcome31_t0) (_ bv1 32)))))
 (let ((?x702 ((_ extract 31 26) ?x725)))
 (let ((?x692 ((_ extract 31 26) chosen_outcome31)))
 (= (_ bv31 6) (ite (bvuge ?x702 ?x692) (bvsub ?x702 ?x692) (bvsub ?x692 ?x702)))))))
(assert
 (let ((?x626 (bvadd (bvand chosen_outcome32 target_outcome32_t0) (bvlshr (bvxor chosen_outcome32 target_outcome32_t0) (_ bv1 32)))))
 (let ((?x591 ((_ extract 31 26) ?x626)))
 (let ((?x553 ((_ extract 31 26) chosen_outcome32)))
 (= (_ bv32 6) (ite (bvuge ?x591 ?x553) (bvsub ?x591 ?x553) (bvsub ?x553 ?x591)))))))
(assert
 (let ((?x8813 ((_ extract 31 26) (bvadd (bvand (_ bv4261235528 32) target) (bvlshr (bvxor (_ bv4261235528 32) target) (_ bv1 32))))))
 (let ((?x18664 ((_ extract 31 26) (_ bv4261235528 32))))
 (= (_ bv16 6) (ite (bvuge ?x8813 ?x18664) (bvsub ?x8813 ?x18664) (bvsub ?x18664 ?x8813))))))
(assert
 (not (= target target_outcome32_t0)))
(assert
 (not (= target target_outcome31_t0)))
(assert
 (not (= target target_outcome30_t0)))
(assert
 (not (= target target_outcome29_t0)))
(assert
 (not (= target target_outcome28_t0)))
(assert
 (not (= target target_outcome27_t0)))
(assert
 (not (= target target_outcome26_t0)))
(assert
 (not (= target target_outcome25_t0)))
(assert
 (not (= target target_outcome24_t0)))
(assert
 (not (= target target_outcome23_t0)))
(assert
 (not (= target target_outcome22_t0)))
(assert
 (not (= target target_outcome21_t0)))
(assert
 (not (= target target_outcome20_t0)))
(assert
 (not (= target target_outcome19_t0)))
(assert
 (not (= target target_outcome18_t0)))
(assert
 (let ((?x10770 (bvadd (bvand (_ bv4261235528 32) target_outcome17_t0) (bvlshr (bvxor (_ bv4261235528 32) target_outcome17_t0) (_ bv1 32)))))
 (let ((?x45951 ((_ extract 31 26) ?x10770)))
 (let ((?x18664 ((_ extract 31 26) (_ bv4261235528 32))))
 (= (_ bv16 6) (ite (bvuge ?x45951 ?x18664) (bvsub ?x45951 ?x18664) (bvsub ?x18664 ?x45951)))))))
(assert
 (let ((?x39403 (bvadd (bvand (_ bv4261235528 32) target_outcome0_t0) (bvlshr (bvxor (_ bv4261235528 32) target_outcome0_t0) (_ bv1 32)))))
 (let ((?x52263 ((_ extract 31 26) ?x39403)))
 (let ((?x18664 ((_ extract 31 26) (_ bv4261235528 32))))
 (= (_ bv16 6) (ite (bvuge ?x52263 ?x18664) (bvsub ?x52263 ?x18664) (bvsub ?x18664 ?x52263)))))))
(assert
 (let ((?x38890 (bvadd (bvand (_ bv4261235528 32) target_outcome1_t0) (bvlshr (bvxor (_ bv4261235528 32) target_outcome1_t0) (_ bv1 32)))))
 (let ((?x16161 ((_ extract 31 26) ?x38890)))
 (let ((?x18664 ((_ extract 31 26) (_ bv4261235528 32))))
 (= (_ bv16 6) (ite (bvuge ?x16161 ?x18664) (bvsub ?x16161 ?x18664) (bvsub ?x18664 ?x16161)))))))
(assert
 (let ((?x42415 (bvadd (bvand (_ bv4261235528 32) target_outcome2_t0) (bvlshr (bvxor (_ bv4261235528 32) target_outcome2_t0) (_ bv1 32)))))
 (let ((?x15977 ((_ extract 31 26) ?x42415)))
 (let ((?x18664 ((_ extract 31 26) (_ bv4261235528 32))))
 (= (_ bv16 6) (ite (bvuge ?x15977 ?x18664) (bvsub ?x15977 ?x18664) (bvsub ?x18664 ?x15977)))))))
(assert
 (let ((?x57973 (bvadd (bvand (_ bv4261235528 32) target_outcome3_t0) (bvlshr (bvxor (_ bv4261235528 32) target_outcome3_t0) (_ bv1 32)))))
 (let ((?x22098 ((_ extract 31 26) ?x57973)))
 (let ((?x18664 ((_ extract 31 26) (_ bv4261235528 32))))
 (= (_ bv16 6) (ite (bvuge ?x22098 ?x18664) (bvsub ?x22098 ?x18664) (bvsub ?x18664 ?x22098)))))))
(assert
 (let ((?x22975 (bvadd (bvand (_ bv4261235528 32) target_outcome4_t0) (bvlshr (bvxor (_ bv4261235528 32) target_outcome4_t0) (_ bv1 32)))))
 (let ((?x59781 ((_ extract 31 26) ?x22975)))
 (let ((?x18664 ((_ extract 31 26) (_ bv4261235528 32))))
 (= (_ bv16 6) (ite (bvuge ?x59781 ?x18664) (bvsub ?x59781 ?x18664) (bvsub ?x18664 ?x59781)))))))
(assert
 (let ((?x27810 (bvadd (bvand (_ bv4261235528 32) target_outcome5_t0) (bvlshr (bvxor (_ bv4261235528 32) target_outcome5_t0) (_ bv1 32)))))
 (let ((?x21713 ((_ extract 31 26) ?x27810)))
 (let ((?x18664 ((_ extract 31 26) (_ bv4261235528 32))))
 (= (_ bv16 6) (ite (bvuge ?x21713 ?x18664) (bvsub ?x21713 ?x18664) (bvsub ?x18664 ?x21713)))))))
(assert
 (let ((?x40586 (bvadd (bvand (_ bv4261235528 32) target_outcome6_t0) (bvlshr (bvxor (_ bv4261235528 32) target_outcome6_t0) (_ bv1 32)))))
 (let ((?x27848 ((_ extract 31 26) ?x40586)))
 (let ((?x18664 ((_ extract 31 26) (_ bv4261235528 32))))
 (= (_ bv16 6) (ite (bvuge ?x27848 ?x18664) (bvsub ?x27848 ?x18664) (bvsub ?x18664 ?x27848)))))))
(assert
 (let ((?x39264 (bvadd (bvand (_ bv4261235528 32) target_outcome7_t0) (bvlshr (bvxor (_ bv4261235528 32) target_outcome7_t0) (_ bv1 32)))))
 (let ((?x12203 ((_ extract 31 26) ?x39264)))
 (let ((?x18664 ((_ extract 31 26) (_ bv4261235528 32))))
 (= (_ bv16 6) (ite (bvuge ?x12203 ?x18664) (bvsub ?x12203 ?x18664) (bvsub ?x18664 ?x12203)))))))
(assert
 (let ((?x45584 (bvadd (bvand (_ bv4261235528 32) target_outcome8_t0) (bvlshr (bvxor (_ bv4261235528 32) target_outcome8_t0) (_ bv1 32)))))
 (let ((?x5481 ((_ extract 31 26) ?x45584)))
 (let ((?x18664 ((_ extract 31 26) (_ bv4261235528 32))))
 (= (_ bv16 6) (ite (bvuge ?x5481 ?x18664) (bvsub ?x5481 ?x18664) (bvsub ?x18664 ?x5481)))))))
(assert
 (let ((?x54473 (bvadd (bvand (_ bv4261235528 32) target_outcome9_t0) (bvlshr (bvxor (_ bv4261235528 32) target_outcome9_t0) (_ bv1 32)))))
 (let ((?x9679 ((_ extract 31 26) ?x54473)))
 (let ((?x18664 ((_ extract 31 26) (_ bv4261235528 32))))
 (= (_ bv16 6) (ite (bvuge ?x9679 ?x18664) (bvsub ?x9679 ?x18664) (bvsub ?x18664 ?x9679)))))))
(assert
 (let ((?x26833 (bvadd (bvand (_ bv4261235528 32) target_outcome10_t0) (bvlshr (bvxor (_ bv4261235528 32) target_outcome10_t0) (_ bv1 32)))))
 (let ((?x8421 ((_ extract 31 26) ?x26833)))
 (let ((?x18664 ((_ extract 31 26) (_ bv4261235528 32))))
 (= (_ bv16 6) (ite (bvuge ?x8421 ?x18664) (bvsub ?x8421 ?x18664) (bvsub ?x18664 ?x8421)))))))
(assert
 (let ((?x17857 (bvadd (bvand (_ bv4261235528 32) target_outcome11_t0) (bvlshr (bvxor (_ bv4261235528 32) target_outcome11_t0) (_ bv1 32)))))
 (let ((?x29379 ((_ extract 31 26) ?x17857)))
 (let ((?x18664 ((_ extract 31 26) (_ bv4261235528 32))))
 (= (_ bv16 6) (ite (bvuge ?x29379 ?x18664) (bvsub ?x29379 ?x18664) (bvsub ?x18664 ?x29379)))))))
(assert
 (let ((?x43457 (bvadd (bvand (_ bv4261235528 32) target_outcome12_t0) (bvlshr (bvxor (_ bv4261235528 32) target_outcome12_t0) (_ bv1 32)))))
 (let ((?x51079 ((_ extract 31 26) ?x43457)))
 (let ((?x18664 ((_ extract 31 26) (_ bv4261235528 32))))
 (= (_ bv16 6) (ite (bvuge ?x51079 ?x18664) (bvsub ?x51079 ?x18664) (bvsub ?x18664 ?x51079)))))))
(assert
 (let ((?x23193 (bvadd (bvand (_ bv4261235528 32) target_outcome13_t0) (bvlshr (bvxor (_ bv4261235528 32) target_outcome13_t0) (_ bv1 32)))))
 (let ((?x47791 ((_ extract 31 26) ?x23193)))
 (let ((?x18664 ((_ extract 31 26) (_ bv4261235528 32))))
 (= (_ bv16 6) (ite (bvuge ?x47791 ?x18664) (bvsub ?x47791 ?x18664) (bvsub ?x18664 ?x47791)))))))
(assert
 (let ((?x48092 (bvadd (bvand (_ bv4261235528 32) target_outcome14_t0) (bvlshr (bvxor (_ bv4261235528 32) target_outcome14_t0) (_ bv1 32)))))
 (let ((?x8974 ((_ extract 31 26) ?x48092)))
 (let ((?x18664 ((_ extract 31 26) (_ bv4261235528 32))))
 (= (_ bv16 6) (ite (bvuge ?x8974 ?x18664) (bvsub ?x8974 ?x18664) (bvsub ?x18664 ?x8974)))))))
(assert
 (let ((?x59476 (bvadd (bvand (_ bv4261235528 32) target_outcome15_t0) (bvlshr (bvxor (_ bv4261235528 32) target_outcome15_t0) (_ bv1 32)))))
 (let ((?x3015 ((_ extract 31 26) ?x59476)))
 (let ((?x18664 ((_ extract 31 26) (_ bv4261235528 32))))
 (= (_ bv16 6) (ite (bvuge ?x3015 ?x18664) (bvsub ?x3015 ?x18664) (bvsub ?x18664 ?x3015)))))))
(assert
 (not (= (_ bv4261235528 32) chosen)))
(assert
 (let ((?x42012 ((_ extract 31 26) (bvadd (bvand (_ bv67798046 32) target) (bvlshr (bvxor (_ bv67798046 32) target) (_ bv1 32))))))
 (let ((?x9485 ((_ extract 31 26) (_ bv67798046 32))))
 (= (_ bv15 6) (ite (bvuge ?x42012 ?x9485) (bvsub ?x42012 ?x9485) (bvsub ?x9485 ?x42012))))))
(assert
 (let ((?x47918 (bvadd (bvand (_ bv67798046 32) target_outcome14_t0) (bvlshr (bvxor (_ bv67798046 32) target_outcome14_t0) (_ bv1 32)))))
 (let ((?x28097 ((_ extract 31 26) ?x47918)))
 (let ((?x9485 ((_ extract 31 26) (_ bv67798046 32))))
 (= (_ bv15 6) (ite (bvuge ?x28097 ?x9485) (bvsub ?x28097 ?x9485) (bvsub ?x9485 ?x28097)))))))
(assert
 (let ((?x3127 (bvadd (bvand (_ bv67798046 32) target_outcome16_t0) (bvlshr (bvxor (_ bv67798046 32) target_outcome16_t0) (_ bv1 32)))))
 (let ((?x44757 ((_ extract 31 26) ?x3127)))
 (let ((?x9485 ((_ extract 31 26) (_ bv67798046 32))))
 (= (_ bv15 6) (ite (bvuge ?x44757 ?x9485) (bvsub ?x44757 ?x9485) (bvsub ?x9485 ?x44757)))))))
(assert
 (not (= (_ bv67798046 32) chosen)))
(assert
 (let ((?x76413 ((_ extract 31 26) (bvadd (bvand (_ bv122685440 32) target) (bvlshr (bvxor (_ bv122685440 32) target) (_ bv1 32))))))
 (let ((?x37415 ((_ extract 31 26) (_ bv122685440 32))))
 (= (_ bv15 6) (ite (bvuge ?x76413 ?x37415) (bvsub ?x76413 ?x37415) (bvsub ?x37415 ?x76413))))))
(assert
 (let ((?x10575 (bvadd (bvand (_ bv122685440 32) target_outcome16_t0) (bvlshr (bvxor (_ bv122685440 32) target_outcome16_t0) (_ bv1 32)))))
 (let ((?x25008 ((_ extract 31 26) ?x10575)))
 (let ((?x37415 ((_ extract 31 26) (_ bv122685440 32))))
 (= (_ bv15 6) (ite (bvuge ?x25008 ?x37415) (bvsub ?x25008 ?x37415) (bvsub ?x37415 ?x25008)))))))
(assert
 (not (= (_ bv122685440 32) chosen)))
(assert
 (let ((?x49486 ((_ extract 31 26) (bvadd (bvand (_ bv131596288 32) target) (bvlshr (bvxor (_ bv131596288 32) target) (_ bv1 32))))))
 (let ((?x59379 ((_ extract 31 26) (_ bv131596288 32))))
 (= (_ bv15 6) (ite (bvuge ?x49486 ?x59379) (bvsub ?x49486 ?x59379) (bvsub ?x59379 ?x49486))))))
(assert
 (let ((?x31215 (bvadd (bvand (_ bv131596288 32) target_outcome16_t0) (bvlshr (bvxor (_ bv131596288 32) target_outcome16_t0) (_ bv1 32)))))
 (let ((?x12075 ((_ extract 31 26) ?x31215)))
 (let ((?x59379 ((_ extract 31 26) (_ bv131596288 32))))
 (= (_ bv15 6) (ite (bvuge ?x12075 ?x59379) (bvsub ?x12075 ?x59379) (bvsub ?x59379 ?x12075)))))))
(assert
 (not (= (_ bv131596288 32) chosen)))
(assert
 (= chosen chosen_outcome15))
(assert
 (= chosen chosen_outcome16))
(assert
 (= (= (_ bv1 1) ((_ extract 0 0) target_outcome15_t0)) (= target_bit_15_0_bool true)))
(assert
 (= (= (_ bv1 1) ((_ extract 1 1) target_outcome15_t0)) (= target_bit_15_1_bool true)))
(assert
 (= (= (_ bv1 1) ((_ extract 2 2) target_outcome15_t0)) (= target_bit_15_2_bool true)))
(assert
 (= (= (_ bv1 1) ((_ extract 3 3) target_outcome15_t0)) (= target_bit_15_3_bool true)))
(assert
 (= (= (_ bv1 1) ((_ extract 4 4) target_outcome15_t0)) (= target_bit_15_4_bool true)))
(assert
 (= (= (_ bv1 1) ((_ extract 5 5) target_outcome15_t0)) (= target_bit_15_5_bool true)))
(assert
 (= (= (_ bv1 1) ((_ extract 6 6) target_outcome15_t0)) (= target_bit_15_6_bool true)))
(assert
 (= (= (_ bv1 1) ((_ extract 7 7) target_outcome15_t0)) (= target_bit_15_7_bool true)))
(assert
 (= (= (_ bv1 1) ((_ extract 8 8) target_outcome15_t0)) (= target_bit_15_8_bool true)))
(assert
 (= (= (_ bv1 1) ((_ extract 9 9) target_outcome15_t0)) (= target_bit_15_9_bool true)))
(assert
 (= (= (_ bv1 1) ((_ extract 10 10) target_outcome15_t0)) (= target_bit_15_10_bool true)))
(assert
 (= (= (_ bv1 1) ((_ extract 11 11) target_outcome15_t0)) (= target_bit_15_11_bool true)))
(assert
 (= (= (_ bv1 1) ((_ extract 12 12) target_outcome15_t0)) (= target_bit_15_12_bool true)))
(assert
 (= (= (_ bv1 1) ((_ extract 13 13) target_outcome15_t0)) (= target_bit_15_13_bool true)))
(assert
 (= (= (_ bv1 1) ((_ extract 14 14) target_outcome15_t0)) (= target_bit_15_14_bool true)))
(assert
 (= (= (_ bv1 1) ((_ extract 15 15) target_outcome15_t0)) (= target_bit_15_15_bool true)))
(assert
 (= (= (_ bv1 1) ((_ extract 16 16) target_outcome15_t0)) (= target_bit_15_16_bool true)))
(assert
 (= (= (_ bv1 1) ((_ extract 17 17) target_outcome15_t0)) (= target_bit_15_17_bool true)))
(assert
 (= (= (_ bv1 1) ((_ extract 18 18) target_outcome15_t0)) (= target_bit_15_18_bool true)))
(assert
 (= (= (_ bv1 1) ((_ extract 19 19) target_outcome15_t0)) (= target_bit_15_19_bool true)))
(assert
 (= (= (_ bv1 1) ((_ extract 20 20) target_outcome15_t0)) (= target_bit_15_20_bool true)))
(assert
 (= (= (_ bv1 1) ((_ extract 21 21) target_outcome15_t0)) (= target_bit_15_21_bool true)))
(assert
 (= (= (_ bv1 1) ((_ extract 22 22) target_outcome15_t0)) (= target_bit_15_22_bool true)))
(assert
 (= (= (_ bv1 1) ((_ extract 23 23) target_outcome15_t0)) (= target_bit_15_23_bool true)))
(assert
 (= (= (_ bv1 1) ((_ extract 24 24) target_outcome15_t0)) (= target_bit_15_24_bool true)))
(assert
 (= (= (_ bv1 1) ((_ extract 25 25) target_outcome15_t0)) (= target_bit_15_25_bool true)))
(assert
 (= (= (_ bv1 1) ((_ extract 26 26) target_outcome15_t0)) (= target_bit_15_26_bool true)))
(assert
 (= (= (_ bv1 1) ((_ extract 27 27) target_outcome15_t0)) (= target_bit_15_27_bool true)))
(assert
 (= (= (_ bv1 1) ((_ extract 28 28) target_outcome15_t0)) (= target_bit_15_28_bool true)))
(assert
 (= (= (_ bv1 1) ((_ extract 29 29) target_outcome15_t0)) (= target_bit_15_29_bool true)))
(assert
 (= (= (_ bv1 1) ((_ extract 30 30) target_outcome15_t0)) (= target_bit_15_30_bool true)))
(assert
 (= (= (_ bv1 1) ((_ extract 31 31) target_outcome15_t0)) (= target_bit_15_31_bool true)))
(assert
 (= (= (_ bv1 1) ((_ extract 0 0) target_outcome16_t0)) (= target_bit_16_0_bool true)))
(assert
 (= (= (_ bv1 1) ((_ extract 1 1) target_outcome16_t0)) (= target_bit_16_1_bool true)))
(assert
 (= (= (_ bv1 1) ((_ extract 2 2) target_outcome16_t0)) (= target_bit_16_2_bool true)))
(assert
 (= (= (_ bv1 1) ((_ extract 3 3) target_outcome16_t0)) (= target_bit_16_3_bool true)))
(assert
 (= (= (_ bv1 1) ((_ extract 4 4) target_outcome16_t0)) (= target_bit_16_4_bool true)))
(assert
 (= (= (_ bv1 1) ((_ extract 5 5) target_outcome16_t0)) (= target_bit_16_5_bool true)))
(assert
 (= (= (_ bv1 1) ((_ extract 6 6) target_outcome16_t0)) (= target_bit_16_6_bool true)))
(assert
 (= (= (_ bv1 1) ((_ extract 7 7) target_outcome16_t0)) (= target_bit_16_7_bool true)))
(assert
 (= (= (_ bv1 1) ((_ extract 8 8) target_outcome16_t0)) (= target_bit_16_8_bool true)))
(assert
 (= (= (_ bv1 1) ((_ extract 9 9) target_outcome16_t0)) (= target_bit_16_9_bool true)))
(assert
 (= (= (_ bv1 1) ((_ extract 10 10) target_outcome16_t0)) (= target_bit_16_10_bool true)))
(assert
 (= (= (_ bv1 1) ((_ extract 11 11) target_outcome16_t0)) (= target_bit_16_11_bool true)))
(assert
 (= (= (_ bv1 1) ((_ extract 12 12) target_outcome16_t0)) (= target_bit_16_12_bool true)))
(assert
 (= (= (_ bv1 1) ((_ extract 13 13) target_outcome16_t0)) (= target_bit_16_13_bool true)))
(assert
 (= (= (_ bv1 1) ((_ extract 14 14) target_outcome16_t0)) (= target_bit_16_14_bool true)))
(assert
 (= (= (_ bv1 1) ((_ extract 15 15) target_outcome16_t0)) (= target_bit_16_15_bool true)))
(assert
 (= (= (_ bv1 1) ((_ extract 16 16) target_outcome16_t0)) (= target_bit_16_16_bool true)))
(assert
 (= (= (_ bv1 1) ((_ extract 17 17) target_outcome16_t0)) (= target_bit_16_17_bool true)))
(assert
 (= (= (_ bv1 1) ((_ extract 18 18) target_outcome16_t0)) (= target_bit_16_18_bool true)))
(assert
 (= (= (_ bv1 1) ((_ extract 19 19) target_outcome16_t0)) (= target_bit_16_19_bool true)))
(assert
 (= (= (_ bv1 1) ((_ extract 20 20) target_outcome16_t0)) (= target_bit_16_20_bool true)))
(assert
 (= (= (_ bv1 1) ((_ extract 21 21) target_outcome16_t0)) (= target_bit_16_21_bool true)))
(assert
 (= (= (_ bv1 1) ((_ extract 22 22) target_outcome16_t0)) (= target_bit_16_22_bool true)))
(assert
 (= (= (_ bv1 1) ((_ extract 23 23) target_outcome16_t0)) (= target_bit_16_23_bool true)))
(assert
 (= (= (_ bv1 1) ((_ extract 24 24) target_outcome16_t0)) (= target_bit_16_24_bool true)))
(assert
 (= (= (_ bv1 1) ((_ extract 25 25) target_outcome16_t0)) (= target_bit_16_25_bool true)))
(assert
 (= (= (_ bv1 1) ((_ extract 26 26) target_outcome16_t0)) (= target_bit_16_26_bool true)))
(assert
 (= (= (_ bv1 1) ((_ extract 27 27) target_outcome16_t0)) (= target_bit_16_27_bool true)))
(assert
 (= (= (_ bv1 1) ((_ extract 28 28) target_outcome16_t0)) (= target_bit_16_28_bool true)))
(assert
 (= (= (_ bv1 1) ((_ extract 29 29) target_outcome16_t0)) (= target_bit_16_29_bool true)))
(assert
 (= (= (_ bv1 1) ((_ extract 30 30) target_outcome16_t0)) (= target_bit_16_30_bool true)))
(assert
 (= (= (_ bv1 1) ((_ extract 31 31) target_outcome16_t0)) (= target_bit_16_31_bool true)))
(check-sat)
(exit)